NAME: ./prFile/tspFile/tsp_file72.tsp
COMMENT: TSP file generated by Python
TYPE: TSP
DIMENSION: 40
EDGE_WEIGHT_TYPE: EUC_2D
NODE_COORD_SECTION
1 12 16
2 62 59
3 44 7
4 25 9
5 75 31
6 97 25
7 38 88
8 68 72
9 21 37
10 56 7
11 63 82
12 38 38
13 49 97
14 74 18
15 34 30
16 26 15
17 22 19
18 43 63
19 78 96
20 63 23
21 60 99
22 29 66
23 13 2
24 97 2
25 7 54
26 51 27
27 80 5
28 60 75
29 56 77
30 31 80
31 51 9
32 92 69
33 59 1
34 21 88
35 96 69
36 78 97
37 82 36
38 8 74
39 56 10
40 31 94
EOF
